10
1 2 84
1 3 82
1 4 64
1 5 75
1 6 78
1 7 79
1 8 98
1 9 73
1 10 77
2 3 89
2 4 68
2 5 50
2 6 87
2 7 57
2 8 90
2 9 52
2 10 86
3 4 91
3 5 89
3 6 68
3 7 65
3 8 83
3 9 86
3 10 92
4 5 56
4 6 80
4 7 66
4 8 97
4 9 92
4 10 71
5 6 92
5 7 74
5 8 77
5 9 58
5 10 81
6 7 54
6 8 72
6 9 83
6 10 81
7 8 83
7 9 75
7 10 64
8 9 75
8 10 76
9 10 65
